
Gurobi 13.0.0 (linux64) logging started Thu Jan 15 01:28:18 2026

Set parameter LogFile to value "../experiments/network-n_40_s_0_rp_0-app_set-id_27_14_apps/submip_40_epr1_model_gurobi.log"
Set parameter TimeLimit to value 8.7455952950201754e+02
Gurobi Optimizer version 13.0.0 build v13.0.0rc1 (linux64 - "Ubuntu 24.04.3 LTS")

CPU model: Intel(R) Core(TM) Ultra 7 165H, instruction set [SSE2|AVX|AVX2]
Thread count: 22 physical cores, 22 logical processors, using up to 22 threads

Non-default parameters:
TimeLimit  8.7455952950201754e+02
LogToConsole  0

Academic license 2539022 - for non-commercial use only - registered to al___@studenti.unimi.it
Optimize a model with 14012 rows, 3640 columns and 32915 nonzeros (Min)
Model fingerprint: 0xd6774f78
Model has 3640 linear objective coefficients
Model has 128 quadratic constraints
Variable types: 0 continuous, 3640 integer (3640 binary)
Coefficient statistics:
  Matrix range     [1e+00, 9e+02]
  QMatrix range    [5e+01, 2e+02]
  Objective range  [1e+01, 2e+02]
  Bounds range     [1e+00, 1e+00]
  RHS range        [1e+00, 1e+09]
  QRHS range       [1e+02, 6e+02]

MIP start from previous solve did not produce a new incumbent solution
MIP start from previous solve violates constraint fixed_app_3_microservice_1 by 1.000000000

Presolve removed 13719 rows and 3003 columns
Presolve time: 0.03s
Presolved: 4261 rows, 4482 columns, 25969 nonzeros
Variable types: 0 continuous, 4482 integer (4482 binary)

Root relaxation: objective 3.441316e+03, 444 iterations, 0.01 seconds (0.02 work units)

    Nodes    |    Current Node    |     Objective Bounds      |     Work
 Expl Unexpl |  Obj  Depth IntInf | Incumbent    BestBd   Gap | It/Node Time

     0     0 3441.31573    0   87          - 3441.31573      -     -    0s
     0     0 3738.64835    0  116          - 3738.64835      -     -    0s
     0     0 3813.61895    0  122          - 3813.61895      -     -    0s
     0     0 3824.80440    0  117          - 3824.80440      -     -    0s
     0     0 3824.81693    0  118          - 3824.81693      -     -    0s

Cutting planes:
  Gomory: 6
  Lift-and-project: 12
  Cover: 45
  Implied bound: 5
  Clique: 16
  MIR: 26
  Knapsack: 8
  StrongCG: 19
  GUB cover: 8
  Zero half: 11
  RLT: 67
  Relax-and-lift: 32
  BQP: 48

Explored 1 nodes (1036 simplex iterations) in 0.43 seconds (0.43 work units)
Thread count was 22 (of 22 available processors)

Solution count 0

Model is infeasible
Best objective -, best bound -, gap -

User-callback calls 665, time in user-callback 0.00 sec
